1 7 3 -1 0 -1 6 0 2 -1 8 9 0 0 -1 
7 5 3 3 1 8 3 5 -1 9 -1 1 8 0 -1 
4 6 1 5 4 1 9 9 1 8 1 3 2 4 -1 
0 6 7 0 3 7 2 6 1 0 6 9 7 0 -1 
4 3 4 0 0 3 5 6 4 1 -1 5 0 6 -1 
8 4 5 7 3 8 9 2 8 0 9 4 0 9 -1 
9 7 7 2 8 0 9 6 2 1 5 2 -1 1 -1 
2 5 5 8 0 6 4 2 6 0 8 2 7 0 -1 
2 8 9 0 9 2 6 5 3 9 3 7 4 1 -1 
-1 6 2 1 6 5 9 7 7 9 9 7 9 1 -1 
0 3 8 7 5 8 6 2 4 -1 9 7 5 1 -1 
-1 4 0 0 1 1 4 -1 7 -1 3 -1 2 1 -1 
9 3 2 4 0 2 4 0 7 6 8 5 9 6 -1 
2 -1 9 9 8 6 7 3 5 6 9 5 5 2 -1 
7 7 3 6 2 5 -1 7 0 1 7 5 8 7 -1 
